RT is False
Default write of storage_offers_DA.csv just to have a file (but constraint should be inactive)
Reading model...
...model read.
creating competitive generators file...
...competitive generators recorded.
Loading data...
.. day-ahead data read.
Compiling instance...
...instance created.
Creating Offer Mitigation (model will solve as dispatch if TRUE)...
...storage offer mitigation file created
Solving...

Welcome to IBM(R) ILOG(R) CPLEX(R) Interactive Optimizer 12.9.0.0
  with Simplex, Mixed Integer & Barrier Optimizers
5725-A06 5725-A29 5724-Y48 5724-Y49 5724-Y54 5724-Y55 5655-Y21
Copyright IBM Corp. 1988, 2019.  All Rights Reserved.

Type 'help' for a list of available commands.
Type 'help' followed by a command name for more
information on commands.

CPLEX> Logfile 'cplex.log' closed.
Logfile 'C:\Users\llavin\Desktop\test715\logs\tmp6siuukw8.cplex.log' open.
CPLEX> New value for parallel optimization mode: -1
CPLEX> New value for mixed integer optimality gap tolerance: 0.01
CPLEX> New value for deterministic time limit in ticks: 100000
CPLEX> Problem 'C:\Users\llavin\Desktop\test715\logs\tmpb5e3st0b.pyomo.lp' read.
Read time = 0.05 sec. (2.96 ticks)
CPLEX> Problem name         : C:\Users\llavin\Desktop\test715\logs\tmpb5e3st0b.pyomo.lp
Objective sense      : Minimize
Variables            :   25837  [Nneg: 1,  Box: 21420,  Free: 4416]
Objective nonzeros   :    2496
Linear constraints   :   27321  [Less: 13885,  Greater: 4416,  Equal: 9020]
  Nonzeros           :   86197
  RHS nonzeros       :   12136

Variables            : Min LB: -5000.000        Max UB: 1000000.       
Objective nonzeros   : Min   : 15.73158         Max   : 124.0997       
Linear constraints   :
  Nonzeros           : Min   : 0.8500000        Max   : 3000.000       
  RHS nonzeros       : Min   : 1.000000         Max   : 5000.000       
CPLEX> CPXPARAM_Parallel                                -1
CPXPARAM_DetTimeLimit                            100000
CPXPARAM_MIP_Tolerances_MIPGap                   0.01
Parallel mode: opportunistic, using up to 32 threads for concurrent optimization.
Tried aggregator 1 time.
LP Presolve eliminated 21282 rows and 15450 columns.
Aggregator did 774 substitutions.
Reduced LP has 5265 rows, 9613 columns, and 30009 nonzeros.
Presolve time = 0.05 sec. (29.79 ticks)
Symmetry aggregator did 5571 additional substitutions.
Initializing dual steep norms . . .

Iteration log . . .
Iteration:     1   Dual objective     =             0.000000
Perturbation started.
Iteration:   101   Dual objective     =             0.000000
Iteration:   333   Dual objective     =            42.157433
Iteration:   547   Dual objective     =            48.714423
Iteration:   745   Dual objective     =            48.749386
Iteration:   905   Dual objective     =        173770.622022
Iteration:  1111   Dual objective     =        178134.305488
Removing perturbation.

Dual crossover.
  Dual:  Fixing 2 variables.
        1 DMoves:  Infeasibility  0.00000000e+00  Objective  1.78607511e+05
        0 DMoves:  Infeasibility  0.00000000e+00  Objective  1.78607511e+05
  Dual:  Pushed 1, exchanged 1.
  Primal:  Fixing 7 variables.
        6 PMoves:  Infeasibility  2.88491719e-09  Objective  1.78607511e+05
        0 PMoves:  Infeasibility  2.88491719e-09  Objective  1.78607511e+05
  Primal:  Pushed 7, exchanged 0.

Dual simplex solved model.


Dual simplex - Optimal:  Objective =  1.7860751103e+05
Solution time =    0.16 sec.  Iterations = 1225 (0)
Deterministic time = 76.35 ticks  (489.44 ticks/sec)

CPLEX> Solution written to file 'C:\Users\llavin\Desktop\test715\logs\tmper99hj1p.cplex.sol'.
CPLEX> Exporting results... 
